%
% Generated Sudoku 25x25
% Density approximation: 0.50
%
x = array2d(1..n, 1..n, [
   _,  15,   _,   2,   _,  20,   _,   _,   _,   _,   _,   _,   _,   _,  25,   _,   _,  22,  18,   7,  14,   5,   _,   _,   _,
   _,   _,  19,   _,   _,   _,  13,   4,   _,   5,   _,  24,   _,  12,  22,   _,   _,  21,   3,  14,   _,  17,  20,   8,   _,
   _,   _,  16,   5,  21,   2,   _,  25,   _,   _,   7,  10,   _,   _,   _,   1,   _,  23,   _,   _,  24,   _,   _,   _,   _,
   6,   _,   _,  14,   7,  19,   _,   _,   _,   _,   _,   _,   _,   _,  20,   8,   4,   _,  13,  11,   1,   _,  10,  15,  25,
  23,  25,  22,   _,   _,   _,   _,  11,   _,   1,   _,  13,   _,  16,  17,  10,   _,  12,   5,   _,   _,   _,   2,   _,   _,
   _,   _,  23,   _,   6,   _,   4,   _,   _,  20,  18,   _,   _,   _,  24,   3,   _,   _,  21,  25,   _,   _,   _,  11,  15,
   _,   _,  25,  20,   3,  13,  21,   _,  19,   _,   8,  12,   _,   _,   9,   _,   _,   _,  24,   _,   _,   _,   _,  17,   _,
  19,   _,   7,   _,  17,   _,   8,   _,  11,   _,   _,   6,  20,   _,   3,  12,   5,   _,   _,  13,  22,   1,  18,  21,  24,
   4,  13,   _,   9,  22,   1,   _,   3,   _,  24,   _,  11,  14,   _,   _,   _,  15,   _,   _,   _,  20,   _,   6,   _,   _,
   2,  21,  11,  24,   5,  25,   _,   _,  18,   _,   _,   _,  23,  22,   _,  16,  10,   _,   _,   _,  19,   4,  14,   _,   _,
  22,   8,   _,  16,  19,   _,   _,  15,   _,  25,  14,   _,  17,   _,   _,  20,   7,   1,  10,   _,  23,   3,   4,   _,   _,
   _,   _,   _,  11,  10,   _,   _,  20,   _,  21,   5,   _,  22,   6,  12,  24,   _,  17,   9,   _,  16,  14,  15,   1,  19,
  12,  20,   _,   _,   9,  17,   _,   1,   6,  23,  24,  15,   _,   3,   _,  21,   _,   _,   _,   _,   _,   _,  25,   _,   _,
  24,   _,  14,   _,  18,   5,  10,   _,   4,   _,  16,   9,   _,   _,   _,   _,  23,   _,  25,   _,  11,   7,  12,  20,  17,
   _,   6,   _,  17,   1,  12,   _,   _,   _,   _,   _,   _,   7,   _,   _,   5,   _,  13,  11,   _,   _,  24,   _,   _,   _,
   8,   _,   2,  22,   _,   _,  20,   _,   3,   _,   _,   _,  12,   _,  23,   _,   _,  16,  17,   _,   _,   6,   1,   _,   _,
   _,  17,   1,   6,  14,  15,   _,  10,  21,   _,   9,   7,   _,   4,  18,   2,  25,  24,   _,   _,   3,   _,  19,  22,   _,
  21,   3,   _,   _,   _,   _,   1,  23,  25,   _,  22,  14,   _,  20,   _,   7,  13,   _,   _,   _,  17,   _,   _,   2,   5,
   _,   _,  15,   _,  20,  22,   6,   _,   _,  13,   _,   8,  11,   _,   _,   _,   1,   _,  12,   _,   4,   _,   _,   7,  21,
   _,   _,   _,  13,  16,  14,   _,   8,   _,  17,   _,   _,   3,   _,   2,   _,   _,   _,   _,   _,  25,  15,  11,  24,   _,
   _,  14,  10,   _,   _,   8,   _,   _,   1,  11,   _,   _,  19,   9,  13,   4,   _,   5,   _,   _,  21,  22,   3,  18,   _,
   _,  22,   _,   _,   2,   _,   _,   _,   _,   _,   _,   5,   _,   _,  11,   _,   3,  25,  16,   _,   7,   _,   9,   _,  20,
   _,  16,  20,   8,   _,  24,   2,   _,   5,   3,  10,   _,   _,   _,   4,   _,   _,   9,  14,   _,  15,  25,   _,   _,   _,
  18,   5,   _,  12,   4,   _,   _,  14,   _,   _,   3,   _,   _,   _,   8,   _,  20,   _,   _,   _,   2,  13,  24,  19,   1,
  13,   _,   6,   _,   _,   9,   _,   _,   _,   7,  17,  16,   2,  18,  15,   _,   _,  10,   _,   _,  12,   _,   _,   _,   _
]);

n = 25;
